GLPSOL--GLPK LP/MIP Solver 5.0
Parameter(s) specified in the command line:
 --lp ../modeles/20_349.lp --log 20_349.log
Reading problem data from '../modeles/20_349.lp'...
7061 rows, 14000 columns, 48960 non-zeros
6980 integer variables, all of which are binary
21087 lines were read
GLPK Integer Optimizer 5.0
7061 rows, 14000 columns, 48960 non-zeros
6980 integer variables, all of which are binary
Preprocessing...
6920 constraint coefficient(s) were reduced
7061 rows, 13980 columns, 48940 non-zeros
6980 integer variables, all of which are binary
Scaling...
 A: min|aij| =  3.284e-05  max|aij| =  4.000e+00  ratio =  1.218e+05
GM: min|aij| =  5.353e-02  max|aij| =  1.868e+01  ratio =  3.490e+02
EQ: min|aij| =  2.865e-03  max|aij| =  1.000e+00  ratio =  3.490e+02
2N: min|aij| =  2.102e-03  max|aij| =  1.709e+00  ratio =  8.129e+02
Constructing initial basis...
Size of triangular part is 7061
Solving LP relaxation...
GLPK Simplex Optimizer 5.0
7061 rows, 13980 columns, 48940 non-zeros
      0: obj =   4.000000000e+01 inf =   1.142e+03 (41)
Perturbing LP to avoid stalling [199]...
    619: obj =   4.996756979e-01 inf =   0.000e+00 (0)
Removing LP perturbation [1418]...
*  1418: obj =  -4.472080946e+00 inf =   2.703e-14 (0) 1
OPTIMAL LP SOLUTION FOUND
Integer optimization begins...
Long-step dual simplex will be used
+  1418: mip =     not found yet >=              -inf        (1; 0)
+  1422: >>>>>  -4.472080946e+00 >=  -4.472080946e+00 < 0.1% (5; 0)
+  1422: mip =  -4.472080946e+00 >=     tree is empty   0.0% (0; 9)
INTEGER OPTIMAL SOLUTION FOUND
Time used:   0.5 secs
Memory used: 20.4 Mb (21356046 bytes)
